benchmarks_vrp/CMT5/fixed_c/CMT5_5.vrp
NAME: CMT5_5
TYPE: CVRP
COMMENT: 1291.29 - Cluster Nr.5
DIMENSION: 17
CAPACITY: 200
EDGE_WEIGHT_TYPE: EUC_2D
NODE_COORD_TYPE: TWOD_COORDS
NODE_COORD_SECTION: 
4 36 26
16 31 32
5 45 30
10 33 34
12 32 39
11 40 30
15 42 41
7 48 28
8 35 40
13 45 35
2 43 26
3 35 35
17 36 26
1 45 35
6 41 37
14 40 25
9 37 31
DEPOT_SECTION: 
3
-1
DEMAND_SECTION: 
8 16
1 15
3 0
6 16
17 26
13 30
9 14
7 18
15 19
2 22
12 5
14 9
4 18
10 19
11 21
5 17
16 29
EOF
