benchmarks_vrp/CMT5/fixed_c/CMT5_5.tour
NAME: CMT5_5 solution
TYPE: TOUR
TOUR_SECTION:
3 9 11 5 7 2 14 4 17 16 10 -1
3 6 13 1 15 8 12 -1
-1
EOF